p cnf 60 1104
-11 -31 0
-11 -13 0
-31 -33 0
-11 -12 0
-31 -32 0
-11 -13 0
-31 -33 0
-11 -14 0
-31 -34 0
-11 -15 0
-31 -35 0
-11 -16 0
-31 -36 0
-11 -17 0
-31 -37 0
-11 -18 0
-31 -38 0
-11 -19 0
-31 -39 0
-11 -20 0
-31 -40 0
-12 -32 0
-12 -14 0
-32 -34 0
-12 -13 0
-32 -33 0
-12 -14 0
-32 -34 0
-12 -15 0
-32 -35 0
-12 -16 0
-32 -36 0
-12 -17 0
-32 -37 0
-12 -18 0
-32 -38 0
-12 -19 0
-32 -39 0
-12 -20 0
-32 -40 0
-13 -33 0
-13 -15 0
-33 -35 0
-13 -14 0
-33 -34 0
-13 -15 0
-33 -35 0
-13 -16 0
-33 -36 0
-13 -17 0
-33 -37 0
-13 -18 0
-33 -38 0
-13 -19 0
-33 -39 0
-13 -20 0
-33 -40 0
-14 -34 0
-14 -16 0
-34 -36 0
-14 -15 0
-34 -35 0
-14 -16 0
-34 -36 0
-14 -17 0
-34 -37 0
-14 -18 0
-34 -38 0
-14 -19 0
-34 -39 0
-14 -20 0
-34 -40 0
-15 -35 0
-15 -17 0
-35 -37 0
-15 -16 0
-35 -36 0
-15 -17 0
-35 -37 0
-15 -18 0
-35 -38 0
-15 -19 0
-35 -39 0
-15 -20 0
-35 -40 0
-16 -36 0
-16 -18 0
-36 -38 0
-16 -17 0
-36 -37 0
-16 -18 0
-36 -38 0
-16 -19 0
-36 -39 0
-16 -20 0
-36 -40 0
-17 -37 0
-17 -19 0
-37 -39 0
-17 -18 0
-37 -38 0
-17 -19 0
-37 -39 0
-17 -20 0
-37 -40 0
-18 -38 0
-18 -20 0
-38 -40 0
-18 -19 0
-38 -39 0
-18 -20 0
-38 -40 0
-19 -39 0
-19 -20 0
-39 -40 0
-20 -40 0
11 12 13 14 15 16 17 18 19 20 0
31 32 33 34 35 36 37 38 39 40 0
-21 -61 0
-21 -23 0
-61 -63 0
-21 -22 0
-61 -62 0
-21 -23 0
-61 -63 0
-21 -24 0
-61 -64 0
-21 -25 0
-61 -65 0
-21 -26 0
-61 -66 0
-21 -27 0
-61 -67 0
-21 -28 0
-61 -68 0
-21 -29 0
-61 -69 0
-21 -30 0
-61 -70 0
-22 -62 0
-22 -24 0
-62 -64 0
-22 -23 0
-62 -63 0
-22 -24 0
-62 -64 0
-22 -25 0
-62 -65 0
-22 -26 0
-62 -66 0
-22 -27 0
-62 -67 0
-22 -28 0
-62 -68 0
-22 -29 0
-62 -69 0
-22 -30 0
-62 -70 0
-23 -63 0
-23 -25 0
-63 -65 0
-23 -24 0
-63 -64 0
-23 -25 0
-63 -65 0
-23 -26 0
-63 -66 0
-23 -27 0
-63 -67 0
-23 -28 0
-63 -68 0
-23 -29 0
-63 -69 0
-23 -30 0
-63 -70 0
-24 -64 0
-24 -26 0
-64 -66 0
-24 -25 0
-64 -65 0
-24 -26 0
-64 -66 0
-24 -27 0
-64 -67 0
-24 -28 0
-64 -68 0
-24 -29 0
-64 -69 0
-24 -30 0
-64 -70 0
-25 -65 0
-25 -27 0
-65 -67 0
-25 -26 0
-65 -66 0
-25 -27 0
-65 -67 0
-25 -28 0
-65 -68 0
-25 -29 0
-65 -69 0
-25 -30 0
-65 -70 0
-26 -66 0
-26 -28 0
-66 -68 0
-26 -27 0
-66 -67 0
-26 -28 0
-66 -68 0
-26 -29 0
-66 -69 0
-26 -30 0
-66 -70 0
-27 -67 0
-27 -29 0
-67 -69 0
-27 -28 0
-67 -68 0
-27 -29 0
-67 -69 0
-27 -30 0
-67 -70 0
-28 -68 0
-28 -30 0
-68 -70 0
-28 -29 0
-68 -69 0
-28 -30 0
-68 -70 0
-29 -69 0
-29 -30 0
-69 -70 0
-30 -70 0
21 22 23 24 25 26 27 28 29 30 0
61 62 63 64 65 66 67 68 69 70 0
-51 -71 0
-51 -53 0
-71 -73 0
-51 -52 0
-71 -72 0
-51 -53 0
-71 -73 0
-51 -54 0
-71 -74 0
-51 -55 0
-71 -75 0
-51 -56 0
-71 -76 0
-51 -57 0
-71 -77 0
-51 -58 0
-71 -78 0
-51 -59 0
-71 -79 0
-51 -60 0
-71 -80 0
-52 -72 0
-52 -54 0
-72 -74 0
-52 -53 0
-72 -73 0
-52 -54 0
-72 -74 0
-52 -55 0
-72 -75 0
-52 -56 0
-72 -76 0
-52 -57 0
-72 -77 0
-52 -58 0
-72 -78 0
-52 -59 0
-72 -79 0
-52 -60 0
-72 -80 0
-53 -73 0
-53 -55 0
-73 -75 0
-53 -54 0
-73 -74 0
-53 -55 0
-73 -75 0
-53 -56 0
-73 -76 0
-53 -57 0
-73 -77 0
-53 -58 0
-73 -78 0
-53 -59 0
-73 -79 0
-53 -60 0
-73 -80 0
-54 -74 0
-54 -56 0
-74 -76 0
-54 -55 0
-74 -75 0
-54 -56 0
-74 -76 0
-54 -57 0
-74 -77 0
-54 -58 0
-74 -78 0
-54 -59 0
-74 -79 0
-54 -60 0
-74 -80 0
-55 -75 0
-55 -57 0
-75 -77 0
-55 -56 0
-75 -76 0
-55 -57 0
-75 -77 0
-55 -58 0
-75 -78 0
-55 -59 0
-75 -79 0
-55 -60 0
-75 -80 0
-56 -76 0
-56 -58 0
-76 -78 0
-56 -57 0
-76 -77 0
-56 -58 0
-76 -78 0
-56 -59 0
-76 -79 0
-56 -60 0
-76 -80 0
-57 -77 0
-57 -59 0
-77 -79 0
-57 -58 0
-77 -78 0
-57 -59 0
-77 -79 0
-57 -60 0
-77 -80 0
-58 -78 0
-58 -60 0
-78 -80 0
-58 -59 0
-78 -79 0
-58 -60 0
-78 -80 0
-59 -79 0
-59 -60 0
-79 -80 0
-60 -80 0
51 52 53 54 55 56 57 58 59 60 0
71 72 73 74 75 76 77 78 79 80 0
-1 0
-1 -11 0
-1 -21 0
-1 -31 0
-1 -41 0
-1 -51 0
-1 -61 0
-1 -71 0
-1 -81 0
-11 -1 0
-11 -21 0
-11 -31 0
-11 -41 0
-11 -51 0
-11 -61 0
-11 -71 0
-11 -81 0
-21 -1 0
-21 -11 0
-21 -31 0
-21 -41 0
-21 -51 0
-21 -61 0
-21 -71 0
-21 -81 0
-41 0
-31 -1 0
-31 -11 0
-31 -21 0
-31 -41 0
-31 -51 0
-31 -61 0
-31 -71 0
-31 -81 0
-41 -1 0
-41 -11 0
-41 -21 0
-41 -31 0
-41 -51 0
-41 -61 0
-41 -71 0
-41 -81 0
-51 -1 0
-51 -11 0
-51 -21 0
-51 -31 0
-51 -41 0
-51 -61 0
-51 -71 0
-51 -81 0
-81 0
-61 -1 0
-61 -11 0
-61 -21 0
-61 -31 0
-61 -41 0
-61 -51 0
-61 -71 0
-61 -81 0
-71 -1 0
-71 -11 0
-71 -21 0
-71 -31 0
-71 -41 0
-71 -51 0
-71 -61 0
-71 -81 0
-81 -1 0
-81 -11 0
-81 -21 0
-81 -31 0
-81 -41 0
-81 -51 0
-81 -61 0
-81 -71 0
-2 0
-2 -12 0
-2 -22 0
-2 -32 0
-2 -42 0
-2 -52 0
-2 -62 0
-2 -72 0
-2 -82 0
-12 -2 0
-12 -22 0
-12 -32 0
-12 -42 0
-12 -52 0
-12 -62 0
-12 -72 0
-12 -82 0
-22 -2 0
-22 -12 0
-22 -32 0
-22 -42 0
-22 -52 0
-22 -62 0
-22 -72 0
-22 -82 0
-42 0
-32 -2 0
-32 -12 0
-32 -22 0
-32 -42 0
-32 -52 0
-32 -62 0
-32 -72 0
-32 -82 0
-42 -2 0
-42 -12 0
-42 -22 0
-42 -32 0
-42 -52 0
-42 -62 0
-42 -72 0
-42 -82 0
-52 -2 0
-52 -12 0
-52 -22 0
-52 -32 0
-52 -42 0
-52 -62 0
-52 -72 0
-52 -82 0
-82 0
-62 -2 0
-62 -12 0
-62 -22 0
-62 -32 0
-62 -42 0
-62 -52 0
-62 -72 0
-62 -82 0
-72 -2 0
-72 -12 0
-72 -22 0
-72 -32 0
-72 -42 0
-72 -52 0
-72 -62 0
-72 -82 0
-82 -2 0
-82 -12 0
-82 -22 0
-82 -32 0
-82 -42 0
-82 -52 0
-82 -62 0
-82 -72 0
-3 0
-3 -13 0
-3 -23 0
-3 -33 0
-3 -43 0
-3 -53 0
-3 -63 0
-3 -73 0
-3 -83 0
-13 -3 0
-13 -23 0
-13 -33 0
-13 -43 0
-13 -53 0
-13 -63 0
-13 -73 0
-13 -83 0
-23 -3 0
-23 -13 0
-23 -33 0
-23 -43 0
-23 -53 0
-23 -63 0
-23 -73 0
-23 -83 0
-43 0
-33 -3 0
-33 -13 0
-33 -23 0
-33 -43 0
-33 -53 0
-33 -63 0
-33 -73 0
-33 -83 0
-43 -3 0
-43 -13 0
-43 -23 0
-43 -33 0
-43 -53 0
-43 -63 0
-43 -73 0
-43 -83 0
-53 -3 0
-53 -13 0
-53 -23 0
-53 -33 0
-53 -43 0
-53 -63 0
-53 -73 0
-53 -83 0
-83 0
-63 -3 0
-63 -13 0
-63 -23 0
-63 -33 0
-63 -43 0
-63 -53 0
-63 -73 0
-63 -83 0
-73 -3 0
-73 -13 0
-73 -23 0
-73 -33 0
-73 -43 0
-73 -53 0
-73 -63 0
-73 -83 0
-83 -3 0
-83 -13 0
-83 -23 0
-83 -33 0
-83 -43 0
-83 -53 0
-83 -63 0
-83 -73 0
-4 0
-4 -14 0
-4 -24 0
-4 -34 0
-4 -44 0
-4 -54 0
-4 -64 0
-4 -74 0
-4 -84 0
-14 -4 0
-14 -24 0
-14 -34 0
-14 -44 0
-14 -54 0
-14 -64 0
-14 -74 0
-14 -84 0
-24 -4 0
-24 -14 0
-24 -34 0
-24 -44 0
-24 -54 0
-24 -64 0
-24 -74 0
-24 -84 0
-44 0
-34 -4 0
-34 -14 0
-34 -24 0
-34 -44 0
-34 -54 0
-34 -64 0
-34 -74 0
-34 -84 0
-44 -4 0
-44 -14 0
-44 -24 0
-44 -34 0
-44 -54 0
-44 -64 0
-44 -74 0
-44 -84 0
-54 -4 0
-54 -14 0
-54 -24 0
-54 -34 0
-54 -44 0
-54 -64 0
-54 -74 0
-54 -84 0
-84 0
-64 -4 0
-64 -14 0
-64 -24 0
-64 -34 0
-64 -44 0
-64 -54 0
-64 -74 0
-64 -84 0
-74 -4 0
-74 -14 0
-74 -24 0
-74 -34 0
-74 -44 0
-74 -54 0
-74 -64 0
-74 -84 0
-84 -4 0
-84 -14 0
-84 -24 0
-84 -34 0
-84 -44 0
-84 -54 0
-84 -64 0
-84 -74 0
-5 0
-5 -15 0
-5 -25 0
-5 -35 0
-5 -45 0
-5 -55 0
-5 -65 0
-5 -75 0
-5 -85 0
-15 -5 0
-15 -25 0
-15 -35 0
-15 -45 0
-15 -55 0
-15 -65 0
-15 -75 0
-15 -85 0
-25 -5 0
-25 -15 0
-25 -35 0
-25 -45 0
-25 -55 0
-25 -65 0
-25 -75 0
-25 -85 0
-45 0
-35 -5 0
-35 -15 0
-35 -25 0
-35 -45 0
-35 -55 0
-35 -65 0
-35 -75 0
-35 -85 0
-45 -5 0
-45 -15 0
-45 -25 0
-45 -35 0
-45 -55 0
-45 -65 0
-45 -75 0
-45 -85 0
-55 -5 0
-55 -15 0
-55 -25 0
-55 -35 0
-55 -45 0
-55 -65 0
-55 -75 0
-55 -85 0
-85 0
-65 -5 0
-65 -15 0
-65 -25 0
-65 -35 0
-65 -45 0
-65 -55 0
-65 -75 0
-65 -85 0
-75 -5 0
-75 -15 0
-75 -25 0
-75 -35 0
-75 -45 0
-75 -55 0
-75 -65 0
-75 -85 0
-85 -5 0
-85 -15 0
-85 -25 0
-85 -35 0
-85 -45 0
-85 -55 0
-85 -65 0
-85 -75 0
-6 0
-6 -16 0
-6 -26 0
-6 -36 0
-6 -46 0
-6 -56 0
-6 -66 0
-6 -76 0
-6 -86 0
-16 -6 0
-16 -26 0
-16 -36 0
-16 -46 0
-16 -56 0
-16 -66 0
-16 -76 0
-16 -86 0
-26 -6 0
-26 -16 0
-26 -36 0
-26 -46 0
-26 -56 0
-26 -66 0
-26 -76 0
-26 -86 0
-46 0
-36 -6 0
-36 -16 0
-36 -26 0
-36 -46 0
-36 -56 0
-36 -66 0
-36 -76 0
-36 -86 0
-46 -6 0
-46 -16 0
-46 -26 0
-46 -36 0
-46 -56 0
-46 -66 0
-46 -76 0
-46 -86 0
-56 -6 0
-56 -16 0
-56 -26 0
-56 -36 0
-56 -46 0
-56 -66 0
-56 -76 0
-56 -86 0
-86 0
-66 -6 0
-66 -16 0
-66 -26 0
-66 -36 0
-66 -46 0
-66 -56 0
-66 -76 0
-66 -86 0
-76 -6 0
-76 -16 0
-76 -26 0
-76 -36 0
-76 -46 0
-76 -56 0
-76 -66 0
-76 -86 0
-86 -6 0
-86 -16 0
-86 -26 0
-86 -36 0
-86 -46 0
-86 -56 0
-86 -66 0
-86 -76 0
-7 0
-7 -17 0
-7 -27 0
-7 -37 0
-7 -47 0
-7 -57 0
-7 -67 0
-7 -77 0
-7 -87 0
-17 -7 0
-17 -27 0
-17 -37 0
-17 -47 0
-17 -57 0
-17 -67 0
-17 -77 0
-17 -87 0
-27 -7 0
-27 -17 0
-27 -37 0
-27 -47 0
-27 -57 0
-27 -67 0
-27 -77 0
-27 -87 0
-47 0
-37 -7 0
-37 -17 0
-37 -27 0
-37 -47 0
-37 -57 0
-37 -67 0
-37 -77 0
-37 -87 0
-47 -7 0
-47 -17 0
-47 -27 0
-47 -37 0
-47 -57 0
-47 -67 0
-47 -77 0
-47 -87 0
-57 -7 0
-57 -17 0
-57 -27 0
-57 -37 0
-57 -47 0
-57 -67 0
-57 -77 0
-57 -87 0
-87 0
-67 -7 0
-67 -17 0
-67 -27 0
-67 -37 0
-67 -47 0
-67 -57 0
-67 -77 0
-67 -87 0
-77 -7 0
-77 -17 0
-77 -27 0
-77 -37 0
-77 -47 0
-77 -57 0
-77 -67 0
-77 -87 0
-87 -7 0
-87 -17 0
-87 -27 0
-87 -37 0
-87 -47 0
-87 -57 0
-87 -67 0
-87 -77 0
-8 0
-8 -18 0
-8 -28 0
-8 -38 0
-8 -48 0
-8 -58 0
-8 -68 0
-8 -78 0
-8 -88 0
-18 -8 0
-18 -28 0
-18 -38 0
-18 -48 0
-18 -58 0
-18 -68 0
-18 -78 0
-18 -88 0
-28 -8 0
-28 -18 0
-28 -38 0
-28 -48 0
-28 -58 0
-28 -68 0
-28 -78 0
-28 -88 0
-48 0
-38 -8 0
-38 -18 0
-38 -28 0
-38 -48 0
-38 -58 0
-38 -68 0
-38 -78 0
-38 -88 0
-48 -8 0
-48 -18 0
-48 -28 0
-48 -38 0
-48 -58 0
-48 -68 0
-48 -78 0
-48 -88 0
-58 -8 0
-58 -18 0
-58 -28 0
-58 -38 0
-58 -48 0
-58 -68 0
-58 -78 0
-58 -88 0
-88 0
-68 -8 0
-68 -18 0
-68 -28 0
-68 -38 0
-68 -48 0
-68 -58 0
-68 -78 0
-68 -88 0
-78 -8 0
-78 -18 0
-78 -28 0
-78 -38 0
-78 -48 0
-78 -58 0
-78 -68 0
-78 -88 0
-88 -8 0
-88 -18 0
-88 -28 0
-88 -38 0
-88 -48 0
-88 -58 0
-88 -68 0
-88 -78 0
-9 0
-9 -19 0
-9 -29 0
-9 -39 0
-9 -49 0
-9 -59 0
-9 -69 0
-9 -79 0
-9 -89 0
-19 -9 0
-19 -29 0
-19 -39 0
-19 -49 0
-19 -59 0
-19 -69 0
-19 -79 0
-19 -89 0
-29 -9 0
-29 -19 0
-29 -39 0
-29 -49 0
-29 -59 0
-29 -69 0
-29 -79 0
-29 -89 0
-49 0
-39 -9 0
-39 -19 0
-39 -29 0
-39 -49 0
-39 -59 0
-39 -69 0
-39 -79 0
-39 -89 0
-49 -9 0
-49 -19 0
-49 -29 0
-49 -39 0
-49 -59 0
-49 -69 0
-49 -79 0
-49 -89 0
-59 -9 0
-59 -19 0
-59 -29 0
-59 -39 0
-59 -49 0
-59 -69 0
-59 -79 0
-59 -89 0
-89 0
-69 -9 0
-69 -19 0
-69 -29 0
-69 -39 0
-69 -49 0
-69 -59 0
-69 -79 0
-69 -89 0
-79 -9 0
-79 -19 0
-79 -29 0
-79 -39 0
-79 -49 0
-79 -59 0
-79 -69 0
-79 -89 0
-89 -9 0
-89 -19 0
-89 -29 0
-89 -39 0
-89 -49 0
-89 -59 0
-89 -69 0
-89 -79 0
-10 0
-10 -20 0
-10 -30 0
-10 -40 0
-10 -50 0
-10 -60 0
-10 -70 0
-10 -80 0
-10 -90 0
-20 -10 0
-20 -30 0
-20 -40 0
-20 -50 0
-20 -60 0
-20 -70 0
-20 -80 0
-20 -90 0
-30 -10 0
-30 -20 0
-30 -40 0
-30 -50 0
-30 -60 0
-30 -70 0
-30 -80 0
-30 -90 0
-50 0
-40 -10 0
-40 -20 0
-40 -30 0
-40 -50 0
-40 -60 0
-40 -70 0
-40 -80 0
-40 -90 0
-50 -10 0
-50 -20 0
-50 -30 0
-50 -40 0
-50 -60 0
-50 -70 0
-50 -80 0
-50 -90 0
-60 -10 0
-60 -20 0
-60 -30 0
-60 -40 0
-60 -50 0
-60 -70 0
-60 -80 0
-60 -90 0
-90 0
-70 -10 0
-70 -20 0
-70 -30 0
-70 -40 0
-70 -50 0
-70 -60 0
-70 -80 0
-70 -90 0
-80 -10 0
-80 -20 0
-80 -30 0
-80 -40 0
-80 -50 0
-80 -60 0
-80 -70 0
-80 -90 0
-90 -10 0
-90 -20 0
-90 -30 0
-90 -40 0
-90 -50 0
-90 -60 0
-90 -70 0
-90 -80 0
